25 100
  0     35.0     35.0       0.0      230.0      0.0       0.0       0.0  
  1     41.0     49.0       0.0      204.0     10.0       2.0      10.0  
  2     35.0     17.0       0.0      202.0     10.0      13.0       7.0  
  3     55.0     45.0       0.0      197.0     10.0      16.0      13.0  
  4     55.0     20.0      149.0     159.0     10.0      22.0      19.0  
  5     15.0     30.0       0.0      199.0     10.0       7.0      26.0  
  6     25.0     30.0       0.0      208.0     10.0       5.0       3.0  
  7     20.0     50.0       0.0      198.0     10.0       7.0       5.0  
  8     10.0     43.0      95.0      105.0     10.0      17.0       9.0  
  9     55.0     60.0      97.0      107.0     10.0      13.0      16.0  
 10     30.0     60.0       0.0      194.0     10.0      15.0      16.0  
 11     20.0     65.0      67.0      77.0      10.0       9.0      12.0  
 12     50.0     35.0       0.0      205.0     10.0      29.0      19.0  
 13     30.0     25.0      159.0     169.0     10.0      46.0      23.0  
 14     15.0     10.0       0.0      187.0     10.0       4.0      20.0  
 15     30.0      5.0      61.0      71.0      10.0       4.0       8.0  
 16     10.0     20.0       0.0      190.0     10.0      37.0      19.0  
 17      5.0     30.0       0.0      189.0     10.0       0.0       2.0  
 18     20.0     40.0       0.0      204.0     10.0       8.0      12.0  
 19     15.0     60.0       0.0      187.0     10.0      23.0      17.0  
 20     45.0     65.0       0.0      188.0     10.0      17.0       9.0  
 21     45.0     20.0       0.0      201.0     10.0      13.0      11.0  
 22     45.0     10.0       0.0      193.0     10.0       3.0      18.0  
 23     55.0      5.0      68.0      78.0      10.0      57.0      29.0  
 24     65.0     35.0       0.0      190.0     10.0       3.0       3.0  
 25     65.0     20.0      172.0     182.0     10.0       5.0       6.0  
